n_res = 4;
rc = [ 34, 26, 26, 33 ];
n_tasks = 30;
d = [ 9, 8, 3, 1, 1, 10, 7, 4, 5, 4, 7, 6, 1, 6, 2, 4, 9, 5, 5, 5, 9, 7, 3, 9, 6, 3, 2, 1, 7, 9 ];
rr = [| 5, 1, 3, 0, 3, 7, 0, 9, 7, 1, 10, 10, 1, 0, 0, 8, 0, 0, 0, 0, 3, 3, 0, 2, 0, 0, 1, 10, 8, 5
      | 5, 8, 8, 0, 0, 8, 0, 8, 0, 0, 0, 9, 7, 0, 5, 0, 5, 4, 0, 0, 0, 1, 0, 0, 0, 5, 0, 0, 0, 0
      | 0, 0, 0, 1, 3, 0, 7, 0, 0, 0, 0, 0, 10, 0, 0, 0, 7, 0, 1, 9, 8, 0, 7, 0, 6, 0, 9, 1, 0, 6
      | 9, 0, 0, 7, 0, 3, 5, 9, 7, 0, 3, 0, 0, 6, 5, 3, 0, 5, 8, 5, 0, 0, 5, 0, 0, 2, 3, 2, 0, 0 |];
suc = [ { 2 }, 
        { 1 }, 
        { 4 }, 
        { 3 }, 
        { 6 }, 
        { 5 }, 
        { 8 }, 
        { 7 }, 
        { 10 }, 
        { 9 }, 
        { 12 }, 
        { 11 }, 
        { 14 }, 
        { 13 }, 
        { 16 }, 
        { 15 }, 
        { 18 }, 
        { 17 }, 
        { 20 }, 
        { 19 }, 
        { 22 }, 
        { 21 }, 
        { 24 }, 
        { 23 }, 
        { 26 }, 
        { 25 }, 
        { 28 }, 
        { 27 }, 
        { 30 }, 
        { 29 }]; 
